43086.34 0
0 1 2 3 4 5 6 17 18 19 20 21 22 23 24 25 26 27 15 16 7 8 14 9 10 11 12 13 28 29 30 31 32 33 44 49 47 45 46 79 80 82 81 83 78 77 76 84 85 73 72 86 87 88 89 90 91 92 63 64 66 67 68 71 74 75 70 69 65 61 59 60 62 93 94 95 96 97 98 99 100 101 102 103 104 105 106 107 108 109 110 111 112 113 114 58 57 116 115 117 118 119 120 55 56 53 54 52 51 48 50 34 35 36 37 38 39 40 41 42 43 121 122 123 124 125 126 127 128 129 130 131 132 133 134 135 136 137 138 139 140 141 142 143 144 145 146 147 148 149 150 151 152 153 154 155 156 157 158